data/solutions/recovery/degenerate/intermediate/flexible/degenerate_intermediate_instance31/53.sol
Elapsed time: 100.11
Upper bound: 13276580.0
Planning weighted value: 1.85357699389e+11
C[0]=13276580.0
C[1]=13270455.0
C[2]=13257855.0
C[3]=13241264.0
C[4]=13227566.0
C[5]=13204484.0
C[6]=13203001.0
C[7]=13155684.0
C[8]=13153970.0
C[9]=13106492.0
C[10]=13100310.0
C[11]=13069885.0
C[12]=13062580.0
C[13]=12961074.0
y[0]=1
y[1]=9
y[2]=10
y[3]=4
y[4]=5
y[5]=6
y[6]=12
y[7]=9
y[8]=6
y[9]=12
y[10]=10
y[11]=7
y[12]=5
y[13]=0
y[14]=9
y[15]=3
y[16]=0
y[17]=0
y[18]=13
y[19]=10
y[20]=6
y[21]=6
y[22]=4
y[23]=0
y[24]=7
y[25]=0
y[26]=1
y[27]=9
y[28]=0
y[29]=11
y[30]=4
y[31]=13
y[32]=7
y[33]=5
y[34]=0
y[35]=9
y[36]=11
y[37]=7
y[38]=9
y[39]=6
y[40]=12
y[41]=7
y[42]=0
y[43]=1
y[44]=6
y[45]=2
y[46]=8
y[47]=3
y[48]=12
y[49]=1
y[50]=1
y[51]=1
y[52]=10
y[53]=6
y[54]=8
y[55]=13
y[56]=12
y[57]=13
y[58]=11
y[59]=3
y[60]=10
y[61]=2
y[62]=5
y[63]=11
y[64]=2
y[65]=12
y[66]=0
y[67]=8
y[68]=3
y[69]=11
y[70]=3
y[71]=2
y[72]=1
y[73]=2
y[74]=5
y[75]=3
y[76]=8
y[77]=2
y[78]=11
y[79]=4
