data/solutions/recovery/degenerate/intermediate/flexible/degenerate_intermediate_instance31/53.log

Log started (V12.6.3.0) Sat Apr 21 21:41:03 2018

New value for default parallel thread count: 1

Problem '/tmp/tmp5JXEG6.pyomo.lp' read.
Read time = 0.02 sec. (1.11 ticks)

Problem name         : /tmp/tmp5JXEG6.pyomo.lp
Objective sense      : Minimize
Variables            :    1136  [Nneg: 1,  Binary: 1120,  General Integer: 15]
Objective nonzeros   :       1
Linear constraints   :     189  [Less: 94,  Equal: 95]
  Nonzeros           :   80213
  RHS nonzeros       :     161

Variables            : Min LB: 0.000000         Max UB: 1.000000       
Objective nonzeros   : Min   : 1.000000         Max   : 1.000000       
Linear constraints   :
  Nonzeros           : Min   : 1.000000         Max   : 8036379.       
  RHS nonzeros       : Min   : 1.000000         Max   : 8.000000       
Tried aggregator 2 times.
MIP Presolve eliminated 80 rows and 66 columns.
Aggregator did 5 substitutions.
Reduced MIP has 104 rows, 1065 columns, and 3052 nonzeros.
Reduced MIP has 1050 binaries, 15 generals, 0 SOSs, and 0 indicators.
Presolve time = 0.01 sec. (14.42 ticks)
Found incumbent of value 5.5809770e+07 after 0.01 sec. (16.47 ticks)
Probing time = 0.00 sec. (2.01 ticks)
Cover probing fixed 0 vars, tightened 26 bounds.
Tried aggregator 2 times.
Aggregator did 14 substitutions.
Reduced MIP has 90 rows, 1051 columns, and 3024 nonzeros.
Reduced MIP has 1050 binaries, 1 generals, 0 SOSs, and 0 indicators.
Presolve time = 0.00 sec. (2.62 ticks)
Probing time = 0.00 sec. (1.94 ticks)
Cover probing fixed 0 vars, tightened 5 bounds.
Clique table members: 75.
MIP emphasis: balance optimality and feasibility.
MIP search method: dynamic search.
Parallel mode: none, using 1 thread.
Root relaxation solution time = 0.00 sec. (0.99 ticks)

        Nodes                                         Cuts/
   Node  Left     Objective  IInf  Best Integer    Best Bound    ItCnt     Gap

*     0+    0                       5.58098e+07        0.0000           100.00%
      0     0   1.31637e+07    20   5.58098e+07   1.31637e+07       30   76.41%
*     0+    0                       1.73225e+07   1.31637e+07            24.01%
      0     0   1.31637e+07    27   1.73225e+07     Fract: 12       49   24.01%
*     0+    0                       1.71146e+07   1.31637e+07            23.09%
      0     0   1.31637e+07    27   1.71146e+07       Cuts: 8       90   23.09%
*     0+    0                       1.66454e+07   1.31637e+07            20.92%
*     0+    0                       1.60003e+07   1.31637e+07            17.73%
*     0+    0                       1.48478e+07   1.31637e+07            11.34%
*     0+    0                       1.44832e+07   1.31637e+07             9.11%
      0     2   1.31637e+07    23   1.44832e+07   1.31637e+07       90    9.11%
Elapsed time = 0.06 sec. (73.34 ticks, tree = 0.01 MB, solutions = 6)
*    30+   30                       1.44719e+07   1.31637e+07             9.04%
*    40+   40                       1.42966e+07   1.31637e+07             7.92%
*   403   317      integral     0   1.42241e+07   1.31637e+07     3087    7.46%
*   498   347      integral     0   1.40561e+07   1.31637e+07     4044    6.35%
    529   378   1.34142e+07    35   1.40561e+07   1.31637e+07     4352    6.35%
    530   379   1.34419e+07    35   1.40561e+07   1.31637e+07     4373    6.35%
    531   380   1.34419e+07    35   1.40561e+07   1.31637e+07     4374    6.35%
    532   381   1.34476e+07    35   1.40561e+07   1.31637e+07     4378    6.35%
    533   382   1.34476e+07    35   1.40561e+07   1.31637e+07     4379    6.35%
    534   383   1.35025e+07    30   1.40561e+07   1.31637e+07     4390    6.35%
    535   384   1.35105e+07    27   1.40561e+07   1.31637e+07     4402    6.35%
    536   385   1.35448e+07    26   1.40561e+07   1.31637e+07     4404    6.35%
    537   386   1.35868e+07    26   1.40561e+07   1.31637e+07     4408    6.35%
*   598+  436                       1.40561e+07   1.31637e+07             6.35%
*  1000+  662                       1.37612e+07   1.31637e+07             4.34%
*  1000+  647                       1.37031e+07   1.31637e+07             3.94%
*  1000+  644                       1.36883e+07   1.31637e+07             3.83%
*  1000+  629                       1.36127e+07   1.31637e+07             3.30%
*  1000+  623                       1.36043e+07   1.31637e+07             3.24%
   1176   781   1.31637e+07    36   1.36043e+07   1.31637e+07    10940    3.24%
Elapsed time = 0.72 sec. (1054.77 ticks, tree = 1.90 MB, solutions = 16)
*  1376+  490                       1.35502e+07   1.31637e+07             2.85%
*  1476+  407                       1.34698e+07   1.31637e+07             2.27%
   1605   412   1.31727e+07    27   1.34698e+07   1.31637e+07    12990    2.27%
   1606   412   1.31727e+07    27   1.34698e+07   1.31637e+07    12993    2.27%
   1607   412   1.31727e+07    27   1.34698e+07   1.31637e+07    12993    2.27%
   1608   412   1.31727e+07    27   1.34698e+07   1.31637e+07    12994    2.27%
   1609   412   1.31727e+07    27   1.34698e+07   1.31637e+07    12998    2.27%
   1610   412   1.31727e+07    25   1.34698e+07   1.31637e+07    12999    2.27%
   1611   412   1.31727e+07    25   1.34698e+07   1.31637e+07    13000    2.27%
   1612   412   1.31727e+07    25   1.34698e+07   1.31637e+07    13002    2.27%
   1613   413   1.31727e+07    27   1.34698e+07   1.31637e+07    13006    2.27%
   1614   412   1.31727e+07    27   1.34698e+07   1.31637e+07    13010    2.27%
Elapsed time = 1.38 sec. (2013.07 ticks, tree = 0.88 MB, solutions = 18)
   2337   789   1.33135e+07    26   1.34698e+07   1.31637e+07    16987    2.27%
   2338   790   1.33135e+07    27   1.34698e+07   1.31637e+07    16988    2.27%
   2339   791   1.33135e+07    27   1.34698e+07   1.31637e+07    16990    2.27%
   2340   792   1.33135e+07    26   1.34698e+07   1.31637e+07    16991    2.27%
   2341   793   1.33169e+07    27   1.34698e+07   1.31637e+07    16992    2.27%
   2342   794   1.33169e+07    27   1.34698e+07   1.31637e+07    16993    2.27%
   2343   795   1.33179e+07    27   1.34698e+07   1.31637e+07    16994    2.27%
   2344   796   1.33267e+07    28   1.34698e+07   1.31637e+07    16996    2.27%
   2345   797   1.33267e+07    27   1.34698e+07   1.31637e+07    16999    2.27%
   2346   798   1.33267e+07    29   1.34698e+07   1.31637e+07    17001    2.27%
Elapsed time = 2.01 sec. (2971.91 ticks, tree = 1.66 MB, solutions = 18)
   3976  2222   1.32439e+07    32   1.34698e+07   1.31637e+07    27875    2.27%
   3977  2223   1.32441e+07    30   1.34698e+07   1.31637e+07    27878    2.27%
   3978  2224   1.32441e+07    30   1.34698e+07   1.31637e+07    27879    2.27%
   3979  2225   1.32677e+07    30   1.34698e+07   1.31637e+07    27890    2.27%
   3980  2226   1.32678e+07    30   1.34698e+07   1.31637e+07    27891    2.27%
   3981  2227   1.32678e+07    30   1.34698e+07   1.31637e+07    27893    2.27%
   3982  2228   1.32678e+07    30   1.34698e+07   1.31637e+07    27894    2.27%
   3983  2229   1.32922e+07    33   1.34698e+07   1.31637e+07    27912    2.27%
   3984  2230   1.32926e+07    32   1.34698e+07   1.31637e+07    27925    2.27%
   3985  2231   1.33007e+07    31   1.34698e+07   1.31637e+07    27945    2.27%
Elapsed time = 2.61 sec. (3931.90 ticks, tree = 4.86 MB, solutions = 18)
   5868  3904   1.32895e+07    31   1.34698e+07   1.31637e+07    40631    2.27%
   5869  3905   1.33127e+07    30   1.34698e+07   1.31637e+07    40640    2.27%
   5870  3906   1.33699e+07    29   1.34698e+07   1.31637e+07    40662    2.27%
   5871  3907   1.33131e+07    30   1.34698e+07   1.31637e+07    40663    2.27%
   5872  3908   1.33285e+07    28   1.34698e+07   1.31637e+07    40668    2.27%
   5873  3908   1.33405e+07    28   1.34698e+07   1.31637e+07    40675    2.27%
   5874  3909   1.33622e+07    28   1.34698e+07   1.31637e+07    40681    2.27%
   5875  3909   1.33659e+07    25   1.34698e+07   1.31637e+07    40683    2.27%
   5876  3909   1.33746e+07    25   1.34698e+07   1.31637e+07    40684    2.27%
   5877  3910   1.33746e+07    25   1.34698e+07   1.31637e+07    40684    2.27%
Elapsed time = 3.20 sec. (4888.98 ticks, tree = 8.63 MB, solutions = 18)
   8131  5968   1.32888e+07    32   1.34698e+07   1.31637e+07    54750    2.27%
   8132  5969   1.32893e+07    29   1.34698e+07   1.31637e+07    54753    2.27%
   8133  5970   1.32902e+07    27   1.34698e+07   1.31637e+07    54762    2.27%
   8134  5971   1.33498e+07    28   1.34698e+07   1.31637e+07    54806    2.27%
   8135  5972   1.33506e+07    27   1.34698e+07   1.31637e+07    54809    2.27%
   8136  5973   1.33552e+07    29   1.34698e+07   1.31637e+07    54810    2.27%
   8137  5974   1.33553e+07    29   1.34698e+07   1.31637e+07    54811    2.27%
   8138  5975   1.33553e+07    29   1.34698e+07   1.31637e+07    54812    2.27%
   8139  5976   1.33555e+07    29   1.34698e+07   1.31637e+07    54813    2.27%
   8140  5977   1.33574e+07    26   1.34698e+07   1.31637e+07    54818    2.27%
Elapsed time = 3.80 sec. (5846.72 ticks, tree = 13.44 MB, solutions = 18)
* 10476+ 7659                       1.34008e+07   1.31637e+07             1.77%
  10476  7661   1.31994e+07    32   1.34008e+07   1.31637e+07    64998    1.77%
  10477  7662   1.31637e+07    42   1.34008e+07   1.31637e+07    65140    1.77%
  10478  7663   1.31637e+07    49   1.34008e+07   1.31637e+07    65225    1.77%
  10479  7664   1.31637e+07    44   1.34008e+07   1.31637e+07    65227    1.77%
  10480  7665   1.31637e+07    45   1.34008e+07   1.31637e+07    65231    1.77%
  10481  7666   1.31637e+07    44   1.34008e+07   1.31637e+07    65234    1.77%
  10482  7667   1.31637e+07    44   1.34008e+07   1.31637e+07    65236    1.77%
  10483  7668   1.31637e+07    44   1.34008e+07   1.31637e+07    65237    1.77%
  10484  7669   1.31828e+07    35   1.34008e+07   1.31637e+07    65285    1.77%
  10485  7670   1.31829e+07    35   1.34008e+07   1.31637e+07    65286    1.77%
Elapsed time = 4.60 sec. (6816.39 ticks, tree = 17.33 MB, solutions = 19)
  12650  9633   1.31637e+07    51   1.34008e+07   1.31637e+07    79026    1.77%
  12651  9634   1.31637e+07    52   1.34008e+07   1.31637e+07    79041    1.77%
  12652  9635   1.31637e+07    51   1.34008e+07   1.31637e+07    79042    1.77%
  12653  9636   1.31637e+07    53   1.34008e+07   1.31637e+07    79057    1.77%
  12654  9637   1.31637e+07    53   1.34008e+07   1.31637e+07    79071    1.77%
  12655  9638   1.31637e+07    54   1.34008e+07   1.31637e+07    79078    1.77%
  12656  9639   1.31637e+07    53   1.34008e+07   1.31637e+07    79079    1.77%
  12657  9640   1.31637e+07    51   1.34008e+07   1.31637e+07    79087    1.77%
  12658  9641   1.31637e+07    50   1.34008e+07   1.31637e+07    79088    1.77%
  12659  9642   1.31637e+07    49   1.34008e+07   1.31637e+07    79089    1.77%
Elapsed time = 5.21 sec. (7777.79 ticks, tree = 22.11 MB, solutions = 19)
  13737 10516   1.31637e+07    60   1.34008e+07   1.31637e+07    95370    1.77%
  13738 10517   1.31637e+07    60   1.34008e+07   1.31637e+07    95373    1.77%
  13739 10518   1.31637e+07    60   1.34008e+07   1.31637e+07    95391    1.77%
  13740 10519   1.31637e+07    55   1.34008e+07   1.31637e+07    95405    1.77%
  13741 10520   1.31637e+07    60   1.34008e+07   1.31637e+07    95426    1.77%
  13742 10521   1.31637e+07    61   1.34008e+07   1.31637e+07    95474    1.77%
  13743 10522   1.31637e+07    58   1.34008e+07   1.31637e+07    95486    1.77%
  13744 10523   1.31637e+07    53   1.34008e+07   1.31637e+07    95499    1.77%
  13745 10524   1.31640e+07    62   1.34008e+07   1.31637e+07    95518    1.77%
  13746 10525   1.31640e+07    59   1.34008e+07   1.31637e+07    95519    1.77%
Elapsed time = 5.78 sec. (8741.18 ticks, tree = 24.64 MB, solutions = 19)
  14510 11128   1.31637e+07    66   1.34008e+07   1.31637e+07   111330    1.77%
  14511 11129   1.31637e+07    66   1.34008e+07   1.31637e+07   111332    1.77%
  14512 11130   1.31637e+07    71   1.34008e+07   1.31637e+07   111344    1.77%
  14513 11131   1.31637e+07    73   1.34008e+07   1.31637e+07   111348    1.77%
  14514 11132   1.31637e+07    76   1.34008e+07   1.31637e+07   111374    1.77%
  14515 11133   1.31637e+07    69   1.34008e+07   1.31637e+07   111385    1.77%
  14516 11134   1.31637e+07    67   1.34008e+07   1.31637e+07   111392    1.77%
  14517 11135   1.31637e+07    67   1.34008e+07   1.31637e+07   111393    1.77%
  14518 11136   1.31637e+07    69   1.34008e+07   1.31637e+07   111397    1.77%
  16223 12516   1.33251e+07    40   1.34008e+07   1.31637e+07   151789    1.77%
Elapsed time = 8.02 sec. (12557.67 ticks, tree = 33.04 MB, solutions = 19)
  17065 13065        cutoff         1.34008e+07   1.31637e+07   204273    1.77%
  17066 13064        cutoff         1.34008e+07   1.31637e+07   205131    1.77%
  17067 13063        cutoff         1.34008e+07   1.31637e+07   205538    1.77%
  17068 13063   1.33591e+07    66   1.34008e+07   1.31637e+07   206308    1.77%
  17069 13064   1.33592e+07    67   1.34008e+07   1.31637e+07   206327    1.77%
  17070 13063        cutoff         1.34008e+07   1.31637e+07   206363    1.77%
  17071 13062        cutoff         1.34008e+07   1.31637e+07   206386    1.77%
  17072 13063   1.31637e+07    86   1.34008e+07   1.31637e+07   206873    1.77%
  17073 13064   1.31637e+07    76   1.34008e+07   1.31637e+07   206922    1.77%
  17074 13065   1.31637e+07    75   1.34008e+07   1.31637e+07   206931    1.77%
Elapsed time = 10.41 sec. (16571.92 ticks, tree = 36.70 MB, solutions = 19)
* 17776+13390                       1.33774e+07   1.31637e+07             1.60%
  18187 13697   1.33223e+07    45   1.33774e+07   1.31637e+07   257682    1.60%
  18188 13698   1.33223e+07    45   1.33774e+07   1.31637e+07   257684    1.60%
  18189 13698   1.33449e+07    45   1.33774e+07   1.31637e+07   257685    1.60%
  18190 13699   1.33449e+07    44   1.33774e+07   1.31637e+07   257686    1.60%
  18191 13700   1.33459e+07    44   1.33774e+07   1.31637e+07   257687    1.60%
  18192 13699   1.33482e+07    35   1.33774e+07   1.31637e+07   257695    1.60%
  18193 13698   1.33763e+07    35   1.33774e+07   1.31637e+07   257712    1.60%
  18194 13699   1.31817e+07    75   1.33774e+07   1.31637e+07   258223    1.60%
  18195 13700   1.32644e+07    52   1.33774e+07   1.31637e+07   258355    1.60%
  18196 13699   1.32693e+07    46   1.33774e+07   1.31637e+07   258369    1.60%
Elapsed time = 12.83 sec. (20450.24 ticks, tree = 42.16 MB, solutions = 20)
  19275 14516   1.31950e+07    59   1.33774e+07   1.31637e+07   310481    1.60%
  19276 14517   1.31963e+07    56   1.33774e+07   1.31637e+07   310501    1.60%
  19277 14518   1.31963e+07    50   1.33774e+07   1.31637e+07   310507    1.60%
  19278 14519   1.31964e+07    56   1.33774e+07   1.31637e+07   310512    1.60%
  19279 14520   1.31966e+07    69   1.33774e+07   1.31637e+07   310522    1.60%
  19280 14521   1.31967e+07    62   1.33774e+07   1.31637e+07   310524    1.60%
  19281 14522   1.32016e+07    64   1.33774e+07   1.31637e+07   310547    1.60%
  19282 14523   1.32050e+07    53   1.33774e+07   1.31637e+07   310553    1.60%
  19283 14524   1.32051e+07    47   1.33774e+07   1.31637e+07   310556    1.60%
  19284 14525   1.32051e+07    56   1.33774e+07   1.31637e+07   310561    1.60%
Elapsed time = 15.10 sec. (24273.30 ticks, tree = 48.21 MB, solutions = 20)
  21372 16213   1.33019e+07    49   1.33774e+07   1.31637e+07   366264    1.60%
  21373 16214   1.33020e+07    49   1.33774e+07   1.31637e+07   366269    1.60%
  21374 16213        cutoff         1.33774e+07   1.31637e+07   366306    1.60%
  21375 16212        cutoff         1.33774e+07   1.31637e+07   366313    1.60%
  21376 16213   1.31637e+07    74   1.33774e+07   1.31637e+07   366690    1.60%
  21377 16214   1.31637e+07    73   1.33774e+07   1.31637e+07   366725    1.60%
  21378 16215   1.31637e+07    72   1.33774e+07   1.31637e+07   366802    1.60%
  21379 16216   1.31637e+07    67   1.33774e+07   1.31637e+07   366821    1.60%
  21380 16217   1.31637e+07    76   1.33774e+07   1.31637e+07   366868    1.60%
  21381 16218   1.31637e+07    74   1.33774e+07   1.31637e+07   366871    1.60%
Elapsed time = 17.48 sec. (28126.01 ticks, tree = 60.12 MB, solutions = 20)
  23332 17790   1.31637e+07   105   1.33774e+07   1.31637e+07   417228    1.60%
  23333 17791   1.31637e+07   106   1.33774e+07   1.31637e+07   417231    1.60%
  23334 17792   1.31637e+07   102   1.33774e+07   1.31637e+07   417257    1.60%
  23335 17793   1.31637e+07   100   1.33774e+07   1.31637e+07   417265    1.60%
  23336 17794   1.31637e+07    96   1.33774e+07   1.31637e+07   417278    1.60%
  23337 17795   1.31637e+07   100   1.33774e+07   1.31637e+07   417306    1.60%
  23338 17796   1.31637e+07    98   1.33774e+07   1.31637e+07   417308    1.60%
  23339 17797   1.31637e+07    95   1.33774e+07   1.31637e+07   417338    1.60%
  23340 17798   1.31637e+07    94   1.33774e+07   1.31637e+07   417347    1.60%
  23341 17799   1.31637e+07    92   1.33774e+07   1.31637e+07   417351    1.60%
Elapsed time = 19.81 sec. (31958.57 ticks, tree = 71.83 MB, solutions = 20)
  25535 19547   1.31706e+07    60   1.33774e+07   1.31637e+07   472700    1.60%
  25536 19548   1.31706e+07    55   1.33774e+07   1.31637e+07   472701    1.60%
  25537 19549   1.31707e+07    60   1.33774e+07   1.31637e+07   472706    1.60%
  25538 19550   1.31713e+07    65   1.33774e+07   1.31637e+07   472725    1.60%
  25539 19551   1.31714e+07    64   1.33774e+07   1.31637e+07   472727    1.60%
  25540 19552   1.31743e+07    50   1.33774e+07   1.31637e+07   472754    1.60%
  25541 19553   1.31745e+07    51   1.33774e+07   1.31637e+07   472761    1.60%
  25542 19554   1.31747e+07    51   1.33774e+07   1.31637e+07   472763    1.60%
  25543 19555   1.31780e+07    49   1.33774e+07   1.31637e+07   472774    1.60%
  25544 19556   1.31820e+07    51   1.33774e+07   1.31637e+07   472795    1.60%
Elapsed time = 22.71 sec. (35781.27 ticks, tree = 84.19 MB, solutions = 20)
  27569 21210        cutoff         1.33774e+07   1.31637e+07   522899    1.60%
  27570 21211   1.31637e+07    74   1.33774e+07   1.31637e+07   522906    1.60%
  27571 21212   1.31637e+07    63   1.33774e+07   1.31637e+07   522915    1.60%
  27572 21213   1.31637e+07    64   1.33774e+07   1.31637e+07   522916    1.60%
  27573 21214   1.31727e+07    55   1.33774e+07   1.31637e+07   522963    1.60%
  27574 21215   1.31637e+07    61   1.33774e+07   1.31637e+07   522964    1.60%
  27575 21216   1.31637e+07    61   1.33774e+07   1.31637e+07   522973    1.60%
  27576 21217   1.31637e+07    73   1.33774e+07   1.31637e+07   522980    1.60%
  27577 21218   1.33189e+07    40   1.33774e+07   1.31637e+07   523133    1.60%
  27578 21218   1.33513e+07    33   1.33774e+07   1.31637e+07   523146    1.60%
Elapsed time = 26.32 sec. (39638.49 ticks, tree = 95.86 MB, solutions = 20)
* 28976+22128                       1.33645e+07   1.31637e+07             1.50%
  29496 22554   1.31712e+07    54   1.33645e+07   1.31637e+07   569752    1.50%
  29497 22555   1.31727e+07    57   1.33645e+07   1.31637e+07   569764    1.50%
  29498 22556   1.31730e+07    55   1.33645e+07   1.31637e+07   569766    1.50%
  29499 22557   1.31745e+07    59   1.33645e+07   1.31637e+07   569772    1.50%
  29500 22558   1.31745e+07    53   1.33645e+07   1.31637e+07   569779    1.50%
  29501 22559   1.31747e+07    52   1.33645e+07   1.31637e+07   569792    1.50%
  29502 22560   1.31784e+07    46   1.33645e+07   1.31637e+07   569795    1.50%
  29503 22561   1.31784e+07    47   1.33645e+07   1.31637e+07   569801    1.50%
  29504 22562   1.31784e+07    46   1.33645e+07   1.31637e+07   569802    1.50%
  29505 22563   1.31784e+07    47   1.33645e+07   1.31637e+07   569824    1.50%
Elapsed time = 29.84 sec. (43459.13 ticks, tree = 105.98 MB, solutions = 21)
  31596 24169        cutoff         1.33645e+07   1.31637e+07   627662    1.50%
  31597 24170   1.31637e+07    44   1.33645e+07   1.31637e+07   627668    1.50%
  31598 24171   1.31637e+07    44   1.33645e+07   1.31637e+07   627669    1.50%
  31599 24172   1.31637e+07    45   1.33645e+07   1.31637e+07   627672    1.50%
  31600 24173   1.31637e+07    50   1.33645e+07   1.31637e+07   627682    1.50%
  31601 24174   1.31637e+07    58   1.33645e+07   1.31637e+07   627687    1.50%
  31602 24173        cutoff         1.33645e+07   1.31637e+07   627753    1.50%
  31603 24174   1.31637e+07    52   1.33645e+07   1.31637e+07   627754    1.50%
  31604 24175   1.31637e+07    52   1.33645e+07   1.31637e+07   627755    1.50%
  31605 24176   1.31637e+07    52   1.33645e+07   1.31637e+07   627756    1.50%
Elapsed time = 33.49 sec. (47286.42 ticks, tree = 117.29 MB, solutions = 21)
  33802 25930   1.31637e+07    83   1.33645e+07   1.31637e+07   679295    1.50%
  33803 25931   1.31694e+07    82   1.33645e+07   1.31637e+07   679347    1.50%
  33804 25932   1.31695e+07    81   1.33645e+07   1.31637e+07   679348    1.50%
  33805 25933   1.32408e+07    42   1.33645e+07   1.31637e+07   679425    1.50%
  33806 25934   1.32417e+07    40   1.33645e+07   1.31637e+07   679431    1.50%
  33807 25935   1.32437e+07    40   1.33645e+07   1.31637e+07   679434    1.50%
  33808 25936   1.33213e+07    34   1.33645e+07   1.31637e+07   679509    1.50%
  33809 25935        cutoff         1.33645e+07   1.31637e+07   679512    1.50%
  33810 25934    infeasible         1.33645e+07   1.31637e+07   679512    1.50%
  33811 25935   1.31637e+07    36   1.33645e+07   1.31637e+07   679624    1.50%
Elapsed time = 37.07 sec. (51135.96 ticks, tree = 129.64 MB, solutions = 21)
  35747 27416   1.33036e+07    26   1.33645e+07   1.31637e+07   730920    1.50%
  35748 27415        cutoff         1.33645e+07   1.31637e+07   730921    1.50%
  35749 27414    infeasible         1.33645e+07   1.31637e+07   730921    1.50%
  35750 27413        cutoff         1.33645e+07   1.31637e+07   731142    1.50%
  35751 27414   1.31637e+07    48   1.33645e+07   1.31637e+07   731311    1.50%
  35752 27415   1.31637e+07    49   1.33645e+07   1.31637e+07   731316    1.50%
  35753 27416   1.31637e+07    48   1.33645e+07   1.31637e+07   731336    1.50%
  35754 27417   1.31637e+07    47   1.33645e+07   1.31637e+07   731340    1.50%
  35755 27418   1.31637e+07    45   1.33645e+07   1.31637e+07   731357    1.50%
  35756 27419   1.31637e+07    42   1.33645e+07   1.31637e+07   731403    1.50%
Elapsed time = 40.63 sec. (54988.05 ticks, tree = 140.05 MB, solutions = 21)
  37807 28955   1.31637e+07    75   1.33645e+07   1.31637e+07   791262    1.50%
  37808 28956   1.31637e+07    79   1.33645e+07   1.31637e+07   791305    1.50%
  37809 28957   1.31637e+07    75   1.33645e+07   1.31637e+07   791311    1.50%
  37810 28958   1.31637e+07    80   1.33645e+07   1.31637e+07   791350    1.50%
  37811 28959   1.31637e+07    79   1.33645e+07   1.31637e+07   791351    1.50%
  37812 28960   1.31638e+07    77   1.33645e+07   1.31637e+07   791356    1.50%
  37813 28961   1.31656e+07    73   1.33645e+07   1.31637e+07   791375    1.50%
  37814 28962   1.31661e+07    71   1.33645e+07   1.31637e+07   791382    1.50%
  37815 28963   1.31662e+07    70   1.33645e+07   1.31637e+07   791391    1.50%
  37816 28964   1.31664e+07    70   1.33645e+07   1.31637e+07   791393    1.50%
Elapsed time = 44.32 sec. (58814.75 ticks, tree = 150.90 MB, solutions = 21)
  39482 30220   1.32948e+07    54   1.33645e+07   1.31637e+07   842932    1.50%
  39483 30221   1.32958e+07    53   1.33645e+07   1.31637e+07   842938    1.50%
  39484 30222   1.32960e+07    51   1.33645e+07   1.31637e+07   842941    1.50%
  39485 30223   1.32967e+07    52   1.33645e+07   1.31637e+07   842948    1.50%
  39486 30224   1.32969e+07    46   1.33645e+07   1.31637e+07   842951    1.50%
  39487 30225   1.32992e+07    43   1.33645e+07   1.31637e+07   842957    1.50%
  39488 30226   1.33414e+07    45   1.33645e+07   1.31637e+07   842979    1.50%
  39489 30227   1.33414e+07    45   1.33645e+07   1.31637e+07   842980    1.50%
  39490 30228   1.33454e+07    38   1.33645e+07   1.31637e+07   842988    1.50%
  39491 30228   1.33615e+07    37   1.33645e+07   1.31637e+07   843008    1.50%
Elapsed time = 47.87 sec. (62635.47 ticks, tree = 159.79 MB, solutions = 21)
  40975 31233        cutoff         1.33645e+07   1.31637e+07   895717    1.50%
  40976 31234   1.31637e+07    62   1.33645e+07   1.31637e+07   895887    1.50%
  40977 31235   1.31637e+07    70   1.33645e+07   1.31637e+07   896078    1.50%
  40978 31236   1.32354e+07    46   1.33645e+07   1.31637e+07   896233    1.50%
  40979 31235        cutoff         1.33645e+07   1.31637e+07   896271    1.50%
  40980 31236   1.32354e+07    49   1.33645e+07   1.31637e+07   896360    1.50%
  40981 31237   1.32354e+07    52   1.33645e+07   1.31637e+07   896389    1.50%
  40982 31238   1.32354e+07    49   1.33645e+07   1.31637e+07   896390    1.50%
  40983 31239   1.32354e+07    48   1.33645e+07   1.31637e+07   896408    1.50%
  40984 31240   1.32471e+07    53   1.33645e+07   1.31637e+07   896462    1.50%
Elapsed time = 51.47 sec. (66495.00 ticks, tree = 166.88 MB, solutions = 21)
  42776 32550   1.31723e+07    67   1.33645e+07   1.31637e+07   951881    1.50%
  42777 32551   1.31724e+07    62   1.33645e+07   1.31637e+07   951884    1.50%
  42778 32550        cutoff         1.33645e+07   1.31637e+07   951934    1.50%
  42779 32551   1.31724e+07    61   1.33645e+07   1.31637e+07   951935    1.50%
  42780 32552   1.31983e+07    58   1.33645e+07   1.31637e+07   952012    1.50%
  42781 32553   1.31865e+07    45   1.33645e+07   1.31637e+07   952053    1.50%
  42782 32554   1.31994e+07    58   1.33645e+07   1.31637e+07   952055    1.50%
  42783 32553        cutoff         1.33645e+07   1.31637e+07   952078    1.50%
  42784 32554   1.32005e+07    56   1.33645e+07   1.31637e+07   952082    1.50%
  42785 32555   1.32005e+07    55   1.33645e+07   1.31637e+07   952084    1.50%
Elapsed time = 55.11 sec. (70322.99 ticks, tree = 176.14 MB, solutions = 21)
  44572 33896   1.31637e+07    58   1.33645e+07   1.31637e+07  1007426    1.50%
  44573 33897   1.31637e+07    61   1.33645e+07   1.31637e+07  1007454    1.50%
  44574 33898   1.31637e+07    62   1.33645e+07   1.31637e+07  1007457    1.50%
  44575 33899   1.31637e+07    59   1.33645e+07   1.31637e+07  1007468    1.50%
  44576 33900   1.31637e+07    57   1.33645e+07   1.31637e+07  1007477    1.50%
  44577 33901   1.32125e+07    38   1.33645e+07   1.31637e+07  1007563    1.50%
  44578 33901   1.33260e+07    35   1.33645e+07   1.31637e+07  1007595    1.50%
  44579 33902   1.33272e+07    32   1.33645e+07   1.31637e+07  1007596    1.50%
  44580 33901   1.33272e+07    31   1.33645e+07   1.31637e+07  1007597    1.50%
  44581 33900        cutoff         1.33645e+07   1.31637e+07  1007599    1.50%
Elapsed time = 58.77 sec. (74155.69 ticks, tree = 186.59 MB, solutions = 21)
  46190 35098   1.32038e+07    78   1.33645e+07   1.31637e+07  1058352    1.50%
  46191 35099   1.32047e+07    76   1.33645e+07   1.31637e+07  1058370    1.50%
  46192 35100   1.32048e+07    74   1.33645e+07   1.31637e+07  1058372    1.50%
  46193 35101   1.32518e+07    58   1.33645e+07   1.31637e+07  1058457    1.50%
  46194 35102   1.32518e+07    57   1.33645e+07   1.31637e+07  1058458    1.50%
  46195 35103   1.32525e+07    58   1.33645e+07   1.31637e+07  1058463    1.50%
  46196 35104   1.32532e+07    65   1.33645e+07   1.31637e+07  1058479    1.50%
  46197 35105   1.32553e+07    61   1.33645e+07   1.31637e+07  1058491    1.50%
  46198 35104        cutoff         1.33645e+07   1.31637e+07  1058494    1.50%
  46199 35105   1.33473e+07    47   1.33645e+07   1.31637e+07  1058565    1.50%
Elapsed time = 62.35 sec. (77987.55 ticks, tree = 195.07 MB, solutions = 21)
  48080 36587   1.31829e+07    60   1.33645e+07   1.31637e+07  1114258    1.50%
  48081 36588   1.31849e+07    55   1.33645e+07   1.31637e+07  1114270    1.50%
  48082 36588   1.33010e+07    28   1.33645e+07   1.31637e+07  1114326    1.50%
  48083 36587        cutoff         1.33645e+07   1.31637e+07  1114346    1.50%
  48084 36588   1.31637e+07    52   1.33645e+07   1.31637e+07  1114498    1.50%
  48085 36589   1.31637e+07    45   1.33645e+07   1.31637e+07  1114538    1.50%
  48086 36590   1.31637e+07    54   1.33645e+07   1.31637e+07  1114588    1.50%
  48087 36591   1.31637e+07    53   1.33645e+07   1.31637e+07  1114591    1.50%
  48088 36592   1.31637e+07    53   1.33645e+07   1.31637e+07  1114593    1.50%
  48089 36593   1.31637e+07    53   1.33645e+07   1.31637e+07  1114602    1.50%
Elapsed time = 66.00 sec. (81835.46 ticks, tree = 205.50 MB, solutions = 21)
  49810 37902   1.32490e+07    33   1.33645e+07   1.31637e+07  1169328    1.50%
  49811 37903   1.32490e+07    32   1.33645e+07   1.31637e+07  1169329    1.50%
  49812 37902        cutoff         1.33645e+07   1.31637e+07  1169331    1.50%
  49813 37903   1.32848e+07    31   1.33645e+07   1.31637e+07  1169343    1.50%
  49814 37904   1.32848e+07    31   1.33645e+07   1.31637e+07  1169351    1.50%
  49815 37905   1.32848e+07    26   1.33645e+07   1.31637e+07  1169355    1.50%
  49816 37906   1.32848e+07    26   1.33645e+07   1.31637e+07  1169360    1.50%
  49817 37907   1.32848e+07    25   1.33645e+07   1.31637e+07  1169379    1.50%
  49818 37908   1.32848e+07    26   1.33645e+07   1.31637e+07  1169387    1.50%
  49819 37909   1.32848e+07    26   1.33645e+07   1.31637e+07  1169397    1.50%
Elapsed time = 69.60 sec. (85655.12 ticks, tree = 214.74 MB, solutions = 21)
  51597 39286   1.31867e+07    65   1.33645e+07   1.31637e+07  1223800    1.50%
  51598 39287   1.31887e+07    72   1.33645e+07   1.31637e+07  1223820    1.50%
  51599 39288   1.31888e+07    62   1.33645e+07   1.31637e+07  1223825    1.50%
  51600 39289   1.31902e+07    66   1.33645e+07   1.31637e+07  1223846    1.50%
  51601 39290   1.31911e+07    64   1.33645e+07   1.31637e+07  1223877    1.50%
  51602 39291   1.31915e+07    65   1.33645e+07   1.31637e+07  1223885    1.50%
  51603 39292   1.31916e+07    55   1.33645e+07   1.31637e+07  1223893    1.50%
  51604 39293   1.32052e+07    61   1.33645e+07   1.31637e+07  1223921    1.50%
  51605 39294   1.32053e+07    59   1.33645e+07   1.31637e+07  1223925    1.50%
  51606 39295   1.32053e+07    61   1.33645e+07   1.31637e+07  1223929    1.50%
Elapsed time = 73.21 sec. (89506.55 ticks, tree = 224.46 MB, solutions = 21)
  53286 40431   1.32251e+07    50   1.33645e+07   1.31637e+07  1279312    1.50%
  53287 40432   1.32350e+07    49   1.33645e+07   1.31637e+07  1279315    1.50%
  53288 40433   1.32361e+07    55   1.33645e+07   1.31637e+07  1279340    1.50%
  53289 40432        cutoff         1.33645e+07   1.31637e+07  1279399    1.50%
  53290 40431        cutoff         1.33645e+07   1.31637e+07  1279414    1.50%
  53291 40432   1.33367e+07    25   1.33645e+07   1.31637e+07  1279626    1.50%
  53292 40433   1.33367e+07    23   1.33645e+07   1.31637e+07  1279632    1.50%
  53293 40433   1.33367e+07    26   1.33645e+07   1.31637e+07  1279661    1.50%
  53294 40434   1.33367e+07    22   1.33645e+07   1.31637e+07  1279662    1.50%
  53295 40435   1.33367e+07    22   1.33645e+07   1.31637e+07  1279669    1.50%
Elapsed time = 76.87 sec. (93361.90 ticks, tree = 232.50 MB, solutions = 21)
  54572 41266   1.31663e+07    68   1.33645e+07   1.31637e+07  1333986    1.50%
  54573 41267   1.31664e+07    68   1.33645e+07   1.31637e+07  1333987    1.50%
  54574 41268   1.31664e+07    70   1.33645e+07   1.31637e+07  1333991    1.50%
  54575 41269   1.31713e+07    72   1.33645e+07   1.31637e+07  1334011    1.50%
  54576 41270   1.31713e+07    70   1.33645e+07   1.31637e+07  1334014    1.50%
  54577 41271   1.31722e+07    70   1.33645e+07   1.31637e+07  1334024    1.50%
  54578 41272   1.31747e+07    69   1.33645e+07   1.31637e+07  1334042    1.50%
  54579 41273   1.31747e+07    69   1.33645e+07   1.31637e+07  1334043    1.50%
  54580 41274   1.31763e+07    69   1.33645e+07   1.31637e+07  1334060    1.50%
  54581 41275   1.31845e+07    68   1.33645e+07   1.31637e+07  1334083    1.50%
Elapsed time = 80.48 sec. (97186.36 ticks, tree = 238.43 MB, solutions = 21)
  56464 42683   1.31637e+07    58   1.33645e+07   1.31637e+07  1390930    1.50%
  56465 42684   1.31637e+07    60   1.33645e+07   1.31637e+07  1390975    1.50%
  56466 42685   1.31637e+07    65   1.33645e+07   1.31637e+07  1391013    1.50%
  56467 42686   1.31637e+07    60   1.33645e+07   1.31637e+07  1391036    1.50%
  56468 42687   1.31637e+07    65   1.33645e+07   1.31637e+07  1391243    1.50%
  56469 42688   1.31637e+07    62   1.33645e+07   1.31637e+07  1391260    1.50%
  56470 42689   1.31637e+07    62   1.33645e+07   1.31637e+07  1391271    1.50%
  56471 42690   1.31637e+07    57   1.33645e+07   1.31637e+07  1391355    1.50%
  56472 42691   1.31637e+07    59   1.33645e+07   1.31637e+07  1391396    1.50%
  56473 42692   1.31637e+07    58   1.33645e+07   1.31637e+07  1391460    1.50%
Elapsed time = 84.14 sec. (101033.13 ticks, tree = 248.39 MB, solutions = 21)
  58136 43917   1.33613e+07    34   1.33645e+07   1.31637e+07  1444371    1.50%
  58137 43916        cutoff         1.33645e+07   1.31637e+07  1444372    1.50%
  58138 43915    infeasible         1.33645e+07   1.31637e+07  1444372    1.50%
  58139 43916   1.31637e+07    61   1.33645e+07   1.31637e+07  1444531    1.50%
  58140 43917   1.31637e+07    52   1.33645e+07   1.31637e+07  1444623    1.50%
  58141 43918   1.31637e+07    60   1.33645e+07   1.31637e+07  1444649    1.50%
  58142 43919   1.31637e+07    74   1.33645e+07   1.31637e+07  1444747    1.50%
  58143 43920   1.31637e+07    72   1.33645e+07   1.31637e+07  1444748    1.50%
  58144 43921   1.31637e+07    81   1.33645e+07   1.31637e+07  1444794    1.50%
  58145 43922   1.31637e+07    82   1.33645e+07   1.31637e+07  1444805    1.50%
Elapsed time = 87.77 sec. (104875.31 ticks, tree = 257.03 MB, solutions = 21)
  59856 45152   1.32439e+07    38   1.33645e+07   1.31637e+07  1500840    1.50%
  59857 45151   1.33325e+07    22   1.33645e+07   1.31637e+07  1500875    1.50%
  59858 45150        cutoff         1.33645e+07   1.31637e+07  1500877    1.50%
  59859 45151   1.32030e+07    44   1.33645e+07   1.31637e+07  1501199    1.50%
  59860 45150        cutoff         1.33645e+07   1.31637e+07  1501230    1.50%
  59861 45149        cutoff         1.33645e+07   1.31637e+07  1501250    1.50%
  59862 45150   1.31643e+07    52   1.33645e+07   1.31637e+07  1501477    1.50%
  59863 45150   1.32504e+07    36   1.33645e+07   1.31637e+07  1501539    1.50%
  59864 45149        cutoff         1.33645e+07   1.31637e+07  1501568    1.50%
  59865 45150   1.31637e+07    48   1.33645e+07   1.31637e+07  1501668    1.50%
Elapsed time = 91.45 sec. (108746.44 ticks, tree = 265.65 MB, solutions = 21)
* 59976+44106                       1.33367e+07   1.31637e+07             1.30%
* 60376+42996                       1.33111e+07   1.31637e+07             1.11%
* 60476+42196                       1.32965e+07   1.31637e+07             1.00%
* 60676+41861                       1.32900e+07   1.31637e+07             0.95%
  60788 41927   1.31637e+07    65   1.32900e+07   1.31637e+07  1534182    0.95%
  60789 41928   1.31637e+07    59   1.32900e+07   1.31637e+07  1534183    0.95%
  60790 41929   1.31637e+07    57   1.32900e+07   1.31637e+07  1534196    0.95%
  60791 41930   1.31637e+07    54   1.32900e+07   1.31637e+07  1534215    0.95%
  60792 41931   1.31637e+07    53   1.32900e+07   1.31637e+07  1534236    0.95%
  60793 41932   1.31637e+07    55   1.32900e+07   1.31637e+07  1534245    0.95%
  60794 41933   1.31637e+07    51   1.32900e+07   1.31637e+07  1534247    0.95%
  60795 41934   1.31642e+07    76   1.32900e+07   1.31637e+07  1534352    0.95%
  60796 41935   1.31651e+07    75   1.32900e+07   1.31637e+07  1534374    0.95%
  60797 41936   1.31651e+07    64   1.32900e+07   1.31637e+07  1534380    0.95%
Elapsed time = 94.72 sec. (112583.49 ticks, tree = 249.56 MB, solutions = 25)
  61870 42636   1.31637e+07    52   1.32900e+07   1.31637e+07  1573849    0.95%
  61871 42637   1.31637e+07    54   1.32900e+07   1.31637e+07  1573859    0.95%
  61872 42638   1.31637e+07    50   1.32900e+07   1.31637e+07  1573866    0.95%
  61873 42639   1.31637e+07    49   1.32900e+07   1.31637e+07  1573869    0.95%
  61874 42640   1.31685e+07    45   1.32900e+07   1.31637e+07  1573936    0.95%
  61875 42639        cutoff         1.32900e+07   1.31637e+07  1573945    0.95%
  61876 42640   1.31878e+07    44   1.32900e+07   1.31637e+07  1574011    0.95%
  61877 42640   1.32157e+07    39   1.32900e+07   1.31637e+07  1574042    0.95%
  61878 42641   1.32226e+07    36   1.32900e+07   1.31637e+07  1574050    0.95%
  61879 42640        cutoff         1.32900e+07   1.31637e+07  1574057    0.95%
Elapsed time = 98.44 sec. (116918.64 ticks, tree = 254.56 MB, solutions = 25)
* 61976+41613                       1.32766e+07   1.31637e+07             0.85%

Cover cuts applied:  428
Mixed integer rounding cuts applied:  18
Zero-half cuts applied:  1
Gomory fractional cuts applied:  10

Root node processing (before b&c):
  Real time             =    0.06 sec. (73.46 ticks)
Sequential b&c:
  Real time             =   99.95 sec. (118718.70 ticks)
                          ------------
Total (root+branch&cut) =  100.00 sec. (118792.16 ticks)

Solution pool: 26 solutions saved.

MIP - Time limit exceeded, integer feasible:  Objective =  1.3276580000e+07
Current MIP best bound =  1.3163658000e+07 (gap = 112922, 0.85%)
Solution time =  100.00 sec.  Iterations = 1590599  Nodes = 62276 (41810)
Deterministic time = 118792.16 ticks  (1187.91 ticks/sec)


Incumbent solution written to file '/tmp/tmp7zXy_q.cplex.sol'.
